
Gurobi 13.0.1 (linux64) logging started Thu Mar 26 16:19:51 2026

Set parameter LogFile to value "logs_sparse/75B_6F_robust_gamma_0d15_theta_0d05199999999999999_2026-03-26_16h19m21s.log"
Set parameter MIPGap to value 0.005
Set parameter OptimalityTol to value 0.005
Gurobi Optimizer version 13.0.1 build v13.0.1rc0 (linux64 - "Linux Mint 22")

CPU model: 12th Gen Intel(R) Core(TM) i7-12700, instruction set [SSE2|AVX|AVX2]
Thread count: 20 physical cores, 20 logical processors, using up to 20 threads

Non-default parameters:
TimeLimit  3600
SoftMemLimit  12
MIPGap  0.005
OptimalityTol  0.005

Optimize a model with 90326 rows, 1733346 columns and 5286408 nonzeros (Max)
Model fingerprint: 0xe2ba1858
Model has 1665086 linear objective coefficients
Variable types: 23346 continuous, 1710000 integer (1710000 binary)
Coefficient statistics:
  Matrix range     [3e-05, 1e+05]
  Objective range  [1e+00, 3e+03]
  Bounds range     [1e+00, 1e+05]
  RHS range        [1e-02, 1e+05]

Presolve removed 46314 rows and 1252620 columns
Presolve time: 3.23s
Presolved: 44012 rows, 480726 columns, 1506877 nonzeros
Variable types: 11328 continuous, 469398 integer (469398 binary)
Found heuristic solution: objective -3.83726e+08
Deterministic concurrent LP optimizer: primal simplex, dual simplex, and barrier
Showing barrier log only...

Root barrier log...

Ordering time: 0.97s

Barrier statistics:
 AA' NZ     : 7.621e+05
 Factor NZ  : 6.411e+06 (roughly 260 MB of memory)
 Factor Ops : 1.809e+09 (less than 1 second per iteration)
 Threads    : 18

                  Objective                Residual
Iter       Primal          Dual         Primal    Dual     Compl     Time
   0  -3.78330828e+12  1.91299550e+09  5.49e+07 1.02e+03  2.30e+07     6s
   1  -4.22941235e+11  3.51392929e+09  6.15e+06 1.56e+03  2.62e+06     6s
   2  -6.38357489e+09  2.93590746e+09  9.90e+04 1.41e+01  4.49e+04     6s
   3  -2.40187069e+08  2.13880247e+09  7.85e+03 1.40e+00  5.09e+03     6s
   4  -9.46295260e+06  1.67755713e+09  4.63e+03 8.32e-01  3.14e+03     6s
   5   1.79959243e+08  1.08655790e+09  1.87e+03 4.33e-01  1.41e+03     7s
   6   2.44024829e+08  6.84881103e+08  9.45e+02 1.85e-01  6.68e+02     7s
   7   2.76017881e+08  5.01272324e+08  4.90e+02 8.40e-02  3.36e+02     7s
   8   2.90184548e+08  3.90828723e+08  2.91e+02 3.43e-02  1.64e+02     7s
   9   2.98549634e+08  3.34307069e+08  1.76e+02 8.10e-03  7.26e+01     7s
  10   3.05692460e+08  3.26503035e+08  7.59e+01 5.23e-03  3.66e+01     7s
  11   3.08448026e+08  3.17186071e+08  3.75e+01 1.59e-03  1.60e+01     8s
  12   3.10221680e+08  3.14607204e+08  1.31e+01 7.39e-04  6.70e+00     8s
  13   3.10620994e+08  3.12669874e+08  7.85e+00 1.86e-04  3.02e+00     8s
  14   3.10877237e+08  3.12278944e+08  4.67e+00 1.13e-04  1.85e+00     8s
  15   3.10952395e+08  3.11905490e+08  3.84e+00 5.60e-05  1.19e+00     8s
  16   3.11009719e+08  3.11842548e+08  3.27e+00 4.63e-05  1.00e+00     8s
  17   3.11213104e+08  3.11684188e+08  1.50e+00 2.45e-05  5.16e-01     8s
  18   3.11333235e+08  3.11562430e+08  5.86e-01 8.66e-06  2.37e-01     9s
  19   3.11415815e+08  3.11534938e+08  2.82e-01 4.60e-06  1.22e-01     9s
  20   3.11451171e+08  3.11527445e+08  1.55e-01 3.75e-06  7.80e-02     9s
  21   3.11458486e+08  3.11516325e+08  1.29e-01 2.38e-06  5.91e-02     9s
  22   3.11472615e+08  3.11509423e+08  8.26e-02 1.34e-06  3.76e-02     9s
  23   3.11480398e+08  3.11505987e+08  5.78e-02 8.21e-07  2.61e-02     9s
  24   3.11484128e+08  3.11503225e+08  4.69e-02 4.05e-07  1.95e-02     9s
  25   3.11487533e+08  3.11502804e+08  3.61e-02 3.53e-07  1.56e-02     9s
  26   3.11490755e+08  3.11501827e+08  2.58e-02 2.33e-07  1.13e-02     9s
  27   3.11493573e+08  3.11500974e+08  1.71e-02 1.40e-07  7.54e-03    10s
  28   3.11496492e+08  3.11500338e+08  8.12e-03 6.87e-08  3.92e-03    10s
  29   3.11497940e+08  3.11499865e+08  3.76e-03 3.50e-08  1.96e-03    10s
  30   3.11498296e+08  3.11499547e+08  2.68e-03 1.29e-08  1.27e-03    10s
  31   3.11498621e+08  3.11499470e+08  1.74e-03 8.94e-09  8.64e-04    10s
  32   3.11498745e+08  3.11499393e+08  1.38e-03 5.10e-09  6.60e-04    11s
  33   3.11498905e+08  3.11499359e+08  9.14e-04 3.30e-09  4.62e-04    11s
  34   3.11498959e+08  3.11499331e+08  7.58e-04 2.25e-09  3.79e-04    11s
  35   3.11499099e+08  3.11499296e+08  3.53e-04 1.19e-09  2.01e-04    11s
  36   3.11499131e+08  3.11499266e+08  2.60e-04 4.83e-10  1.37e-04    11s
  37   3.11499186e+08  3.11499245e+08  1.05e-04 1.67e-10  5.95e-05    11s
  38   3.11499204e+08  3.11499237e+08  5.29e-05 1.85e-10  3.34e-05    11s
  39   3.11499208e+08  3.11499231e+08  4.13e-05 1.74e-10  2.29e-05    11s
  40   3.11499217e+08  3.11499228e+08  1.62e-05 1.83e-10  1.12e-05    12s
  41   3.11499218e+08  3.11499228e+08  1.35e-05 2.37e-10  9.69e-06    12s
  42   3.11499220e+08  3.11499227e+08  8.96e-06 1.97e-10  6.67e-06    12s
  43   3.11499221e+08  3.11499226e+08  6.94e-06 2.30e-10  5.00e-06    12s
  44   3.11499221e+08  3.11499225e+08  6.43e-06 1.77e-10  3.98e-06    12s
  45   3.11499222e+08  3.11499225e+08  5.06e-06 1.81e-10  3.04e-06    12s

Barrier solved model in 45 iterations and 12.13 seconds (14.64 work units)
Optimal objective 3.11499222e+08


Root crossover log...

   14468 DPushes remaining with DInf 0.0000000e+00                12s
       0 DPushes remaining with DInf 0.0000000e+00                13s

   12248 PPushes remaining with PInf 1.5609024e-01                13s
       0 PPushes remaining with PInf 0.0000000e+00                13s

  Push phase complete: Pinf 0.0000000e+00, Dinf 3.9462796e+04     13s


Root simplex log...

Iteration    Objective       Primal Inf.    Dual Inf.      Time
   25883    3.1149922e+08   0.000000e+00   3.946270e+04     13s
   27444    3.1149922e+08   0.000000e+00   0.000000e+00     14s
Crossover time: 1.95 seconds (2.15 work units)
Concurrent spin time: 0.00s

Solved with barrier

Root relaxation: objective 3.114992e+08, 27444 iterations, 10.01 seconds (9.83 work units)

    Nodes    |    Current Node    |     Objective Bounds      |     Work
 Expl Unexpl |  Obj  Depth IntInf | Incumbent    BestBd   Gap | It/Node Time

     0     0 3.1150e+08    0 7255 -3.837e+08 3.1150e+08   181%     -   18s
H    0     0                    1.345692e+08 3.1150e+08   131%     -   20s
H    0     0                    2.713470e+08 3.1150e+08  14.8%     -   21s
H    0     0                    2.732418e+08 3.1150e+08  14.0%     -   22s
H    0     0                    2.854604e+08 3.1150e+08  9.12%     -   37s
H    0     0                    2.925573e+08 3.1150e+08  6.47%     -   41s
H    0     0                    2.926390e+08 3.1150e+08  6.44%     -   43s
H    0     0                    2.926481e+08 3.1150e+08  6.44%     -   55s
H    0     0                    2.956692e+08 3.1150e+08  5.35%     -   55s
H    0     0                    2.967869e+08 3.1150e+08  4.96%     -   55s
H    0     0                    2.973069e+08 3.1150e+08  4.77%     -   55s
     0     0 3.1150e+08    0 8102 2.9731e+08 3.1150e+08  4.77%     -  740s
H    0     0                    2.987745e+08 3.1150e+08  4.26%     -  751s
H    0     0                    2.999018e+08 3.1150e+08  3.87%     -  791s
H    0     0                    3.003982e+08 3.1150e+08  3.70%     -  809s
H    0     0                    3.006164e+08 3.1150e+08  3.62%     -  820s
H    0     0                    3.006165e+08 3.1150e+08  3.62%     -  833s
H    0     0                    3.009043e+08 3.1150e+08  3.52%     -  906s
H    0     0                    3.013723e+08 3.1150e+08  3.36%     -  906s
H    0     0                    3.013765e+08 3.1150e+08  3.36%     -  987s
H    0     0                    3.013923e+08 3.1150e+08  3.35%     -  987s
H    0     0                    3.013954e+08 3.1150e+08  3.35%     -  987s
H    0     0                    3.014277e+08 3.1150e+08  3.34%     - 1090s
H    0     0                    3.014277e+08 3.1150e+08  3.34%     - 1090s
     0     0 3.1150e+08    0 7945 3.0143e+08 3.1150e+08  3.34%     - 1243s
     0     0 3.1150e+08    0 7747 3.0143e+08 3.1150e+08  3.34%     - 1797s
H    0     0                    3.018982e+08 3.1150e+08  3.18%     - 1803s
H    0     0                    3.037662e+08 3.1150e+08  2.55%     - 1807s
H    0     0                    3.041188e+08 3.1150e+08  2.43%     - 1831s
H    0     0                    3.043827e+08 3.1150e+08  2.34%     - 1842s
H    0     0                    3.043840e+08 3.1150e+08  2.34%     - 1844s
H    0     0                    3.046993e+08 3.1150e+08  2.23%     - 1856s
H    0     0                    3.052599e+08 3.1150e+08  2.04%     - 1858s
H    0     0                    3.059518e+08 3.1150e+08  1.81%     - 1870s
H    0     0                    3.060125e+08 3.1150e+08  1.79%     - 1873s
H    0     0                    3.060559e+08 3.1150e+08  1.78%     - 1873s
H    0     0                    3.061381e+08 3.1150e+08  1.75%     - 1873s
H    0     0                    3.062451e+08 3.1150e+08  1.72%     - 1878s
H    0     0                    3.064697e+08 3.1150e+08  1.64%     - 1878s
H    0     0                    3.064790e+08 3.1150e+08  1.64%     - 1878s
H    0     0                    3.066786e+08 3.1150e+08  1.57%     - 1883s
H    0     0                    3.068981e+08 3.1150e+08  1.50%     - 1886s
H    0     0                    3.073546e+08 3.1150e+08  1.35%     - 1886s
H    0     0                    3.074908e+08 3.1150e+08  1.30%     - 1891s
H    0     0                    3.075092e+08 3.1150e+08  1.30%     - 1891s
H    0     0                    3.076154e+08 3.1150e+08  1.26%     - 1891s
H    0     0                    3.077551e+08 3.1150e+08  1.22%     - 1891s
H    0     0                    3.077823e+08 3.1150e+08  1.21%     - 1900s
H    0     0                    3.078037e+08 3.1150e+08  1.20%     - 1900s
H    0     0                    3.078297e+08 3.1150e+08  1.19%     - 1903s
H    0     0                    3.078657e+08 3.1150e+08  1.18%     - 1903s
H    0     0                    3.078850e+08 3.1150e+08  1.17%     - 1903s
H    0     0                    3.079781e+08 3.1150e+08  1.14%     - 1903s
H    0     0                    3.079796e+08 3.1150e+08  1.14%     - 1914s
H    0     0                    3.079813e+08 3.1150e+08  1.14%     - 1914s
H    0     0                    3.079833e+08 3.1150e+08  1.14%     - 1914s
H    0     0                    3.081465e+08 3.1150e+08  1.09%     - 1917s
H    0     0                    3.083075e+08 3.1150e+08  1.04%     - 1917s
     0     0 3.1150e+08    0 7405 3.0831e+08 3.1150e+08  1.04%     - 1966s
     0     0 3.1150e+08    0 9087 3.0831e+08 3.1150e+08  1.04%     - 2358s
     0     0 3.1150e+08    0 8743 3.0831e+08 3.1150e+08  1.04%     - 2374s
     0     0 3.1150e+08    0 9400 3.0831e+08 3.1150e+08  1.03%     - 2718s
     0     0 3.1150e+08    0 9400 3.0831e+08 3.1150e+08  1.03%     - 2720s
     0     0 3.1150e+08    0 9182 3.0831e+08 3.1150e+08  1.03%     - 2722s
H    0     0                    3.083567e+08 3.1150e+08  1.02%     - 2876s
H    0     0                    3.084976e+08 3.1150e+08  0.97%     - 2961s
H    0     0                    3.084978e+08 3.1150e+08  0.97%     - 2961s
H    0     0                    3.084989e+08 3.1150e+08  0.97%     - 2962s
H    0     0                    3.084992e+08 3.1150e+08  0.97%     - 2975s
H    0     0                    3.084993e+08 3.1150e+08  0.97%     - 2975s
H    0     0                    3.084994e+08 3.1150e+08  0.97%     - 2975s
H    0     0                    3.085256e+08 3.1150e+08  0.96%     - 3294s
H    0     0                    3.086887e+08 3.1150e+08  0.91%     - 3299s
H    0     0                    3.086904e+08 3.1150e+08  0.91%     - 3316s
H    0     0                    3.086904e+08 3.1150e+08  0.91%     - 3320s
H    0     0                    3.086904e+08 3.1150e+08  0.91%     - 3320s
H    0     0                    3.086910e+08 3.1150e+08  0.91%     - 3320s
H    0     0                    3.086917e+08 3.1150e+08  0.91%     - 3320s
H    0     0                    3.086917e+08 3.1150e+08  0.91%     - 3332s
H    0     0                    3.086919e+08 3.1150e+08  0.91%     - 3332s
H    0     0                    3.086919e+08 3.1150e+08  0.91%     - 3350s
H    0     0                    3.086924e+08 3.1150e+08  0.91%     - 3350s
H    0     0                    3.086925e+08 3.1150e+08  0.91%     - 3350s
H    0     0                    3.086926e+08 3.1150e+08  0.91%     - 3350s
H    0     0                    3.086929e+08 3.1150e+08  0.91%     - 3350s
H    0     0                    3.086930e+08 3.1150e+08  0.91%     - 3376s
H    0     0                    3.086930e+08 3.1150e+08  0.91%     - 3376s
     0     2 3.1150e+08    0 9182 3.0869e+08 3.1150e+08  0.91%     - 3377s
     1     3 3.1150e+08    1 8451 3.0869e+08 3.1150e+08  0.91% 78908 3472s

Cutting planes:
  MIR: 20
  Flow cover: 73
  RLT: 3849
  Relax-and-lift: 69

Explored 2 nodes (1114444 simplex iterations) in 3600.16 seconds (6184.72 work units)
Thread count was 20 (of 20 available processors)

Solution count 10: 3.08693e+08 3.08693e+08 3.08693e+08 ... 3.08692e+08

Time limit reached
Best objective 3.086929916706e+08, best bound 3.114982197871e+08, gap 0.9087%
